1 4 8 10 11 14 17 18 20 23 25 28 36 43 45 50 57 59 65 66 71 72 73 75 81 82 83 91 98 103 106 108 109 113 115 117 118 126 127 131 132 133 135 141 142 143 147 149 150 152 153 154 164 166 167 170 180 181 182 190 191 192 193 198 204 206 209 211 220 222 223 229 232 234 239 242 244 245 252 254 255 256 258 259 265 269 274 278 280 286 287 290